
  12    4
  10   10   10   10

   0   0   0   0   0   3 2 3 4 
  10  10  10  10  10   3 9 7 5 
   2  10  10  10  10   2 7 5 
   4  10  10  10  10   1 5 
   4  10  10  10  10   1 6 
   5  10  10  10  10   1 8 
   1  10  10  10  10   1 8 
   1  10  10  10  10   2 11 10 
   8  10  10  10  10   1 10 
   8  10  10  10  10   1 12
   2  10  10  10  10   1 12
   0   0   0   0   0   0 
